45

 0   0   0   4   0   0   0   0   0   6   0   4   0   0   0   0   0   0   0   0   0   0  26  26  26  26  26  26  26  26  27  27   5  27   8  27  27  27  17   8  10   1   4  14  14  
 0   0   0   0   0   0   0   0   0   7   0   0   0   0   0   0   0   0   0   0   0   0  26  26  26  26  26  26  26  26  27  27   6  27  27  27  27  27   8   5   9  16   5  11   5  
 0   0   0   0   0   0   0   0   0   0   0   0   0   0   0   0   0   0   0   0   6   0  26  26  26  26  26   2  26  26  27  27  27  27  27  27  27  27   6   2   5  17   2   4  18  
 4   0   0   0   0   0   0   0   0   0   0   0   0   0   0   0   0   0   0   0   0   0  26  26  26  26  26  26  26  26  27  27  27  27  27  27  27  27   1  16   9  17   7   8  11  
 0   0   0   0   0   0   0   0   0   0   0   0   0   0   0   0   0   0   0   0   0   0  26  26  26  26  26  26  26  26  27  27  27  27  27  27  27  27  11   1  13  19   1  14   7  
 0   0   0   0   0   0   0   0   0   0   0   0   0   0   0   0   0   0   0   0   0   0  26  26   5  26  26  26  26  26  27  27  27  27  27  27  27  27  15  14  10   2   6   1  15  
 0   0   0   0   0   0   0   0   0   0   0   0   0   0   0   0   0   0   0   0   0   0  26  26  26  26  26  26  26  26  27  27  27  27  27   7  27  27   5  20   9  16  18   2   5  
 0   0   0   0   0   0   0   0   0   0   0   0   0   0   0   0   0   0   0   0   0   0  26  26  26  26  26  26  26  26   9  27  27  27  27  27  27  27  20  16   4  16   7   2   5  
 0   0   0   0   0   0   0   0   0   0   0   0   0   0   0   0   0   0   0   0   0   0  26  26  26  26  26  26  26  26  16  11  11   2  12  20   5  20  31  31  31  31  31  31  31  
 6   7   0   0   0   0   0   0   0   0   0   0   0   0   0   0   0   0   0   0   0   3  26  26  26  26  26  26  26  26  15  12  16  14  16   4  13   1  31  31  31  31  31  31  31  
 0   0   0   0   0   0   0   0   0   0   0   0   0   0   0   0   0   0   0   0   0   0  26  26  26  26  26  26  26  26  20  20  19  10  10   9  15   7  31  31  31  31  31  31  31  
 4   0   0   0   0   0   0   0   0   0   0   0   0   7   2   0   0   0   0   0   0   0  26  26  26  26  26  26  26  26  18   2  18  12  13  16  19   8  31  31  31  31  31  31  31  
 0   0   0   0   0   0   0   0   0   0   0   0   0   0   0   0   0   0   0   0   0   0  26  26  26  26  26  26  26  26  14   6  16   7  15  16  19   2  31  31  31  31  31  31  31  
 0   0   0   0   0   0   0   0   0   0   0   7   0   0   0   0   0   0   0   0   0   0  26  26  26  26  26  26  26  26  11   2  10  11   6   5  16  20  31  31  31  31  31  31   9  
 0   0   0   0   0   0   0   0   0   0   0   2   0   0   0   0   0   0   0   0   0   0  26  26  26  26  26  26  26  26  16  15  15  18   4  11  15  17  31  31  31  31  31  31  31  
 0   0   0   0   0   0   0   0   0   0   0   0   0   0   0   0   0   0   0   0   0   0  16  17   1  17  16   1   4  17  30  30  30  30  30  30  30  30  31   3  31  31  31  31  31  
 0   0   0   0   0   0   0   0   0   0   0   0   0   0   0   0   0   0   0   0   0   0  16   2   6   5  19  15   1  10  30  30  30  30  30  30  30  30  31  31  31  31  31  31  31  
 0   0   0   0   0   0   0   0   0   0   0   0   0   0   0   0   0   0   0   0   0   0  17   7  18   4   2  20   7  16  30  30   4  30  30  30  30  30  31  31  31  31  31  31  31  
 0   0   0   0   0   0   0   0   0   0   0   0   0   0   0   0   0   0   0   0   0   6   7  19   7  19   6  16  14   5  30  30  30  30  30  30  30  30  31  31  31  31  31  31  31  
 0   0   0   0   0   0   0   0   0   0   0   0   0   0   0   0   0   0   0   0   0   0  19   2  12   6   6  16  11  10  30  30  30  30  30  30  30  30  31  31  31  31  31  31  31  
 0   0   6   0   0   0   0   0   0   0   0   0   0   0   0   0   0   0   0   0   0   0  11   3  19   4   4  15  19   2  30  30  30  30  30  30  30  30  31  31  31  31  31  31  31  
 0   0   0   0   0   0   0   0   0   3   0   0   0   0   0   0   0   0   6   0   0   0   2  14   8  12  13  12   1   2  30  30  30  30  30  30  30  30  31  31  31  31  31  31  31  
26  26  26  26  26  26  26  26  26  26  26  26  26  26  26   3  18  14   7  20  10  18   0   9   1   0   0   0   0   0   0   0   0   0   0   0   0   0   0   0   0   0   0   0   0  
26  26  26  26  26  26  26  26  26  26  26  26  26  26  26   3  16  17   9  14  14   7   9   0   0   0   0   0   0   0   0   0   0   0   0   0   0   0   0   0   0   0   0   0   0  
26  26  26  26  26   5  26  26  26  26  26  26  26  26  26   6  12   9   4  20  15   9   1   0   0   0   0   0   0   0   0   0   0   0   0   0   0   0   0   0   0   0   0   0   0  
26  26  26  26  26  26  26  26  26  26  26  26  26  26  26  15   5   3   8   6   5   4   0   0   0   0   0   0   0   0   0   0   0   0   0   0   0   0   0   0   0   0   0   0   0  
26  26  26  26  26  26  26  26  26  26  26  26  26  26  26   5  20  15  20   7   6  20   0   0   0   0   0   0   0   0   0   0   0   0   0   0   0   0   0   0   0   0   0   0   0  
26  26   2  26  26  26  26  26  26  26  26  26  26  26  26  15   8  15  18  13   8  11   0   0   0   0   0   0   0   0   0   0   0   0   0   0   0   0   0   0   0   0   0   0   0  
26  26  26  26  26  26  26  26  26  26  26  26  26  26  26   8  18   2  15  20  19   3   0   0   0   0   0   0   0   0   0   6   0   0   0   0   0   0   0   0   0   0   0   0   0  
26  26  26  26  26  26  26  26  26  26  26  26  26  26  26  19   6  18  15  19  20   9   0   0   0   0   0   0   0   0   0   0   0   0   0   0   0   0   0   0   0   0   0   0   0  
27  27  27  27  27  27  27   9   9   1   3  11   2  19  11  30  30  30  30  30  30  30   0   0   0   0   0   0   0   0   0   0   0   0   0   0   0   0   0   0   0   0   0   0   0  
27  27  27  27  27  27  27  27  19  10  12  19   6   8  17  30  30  30  30  30  30  30   0   0   0   0   0   0   6   0   0   0   0   0   0   0   0   0   0   0   0   0   0   0   0  
 5   6  27  27  27  27  27  27  16   1  11   2   4  18   4  30  30   4  30  30  30  30   0   0   0   0   0   0   0   0   0   0   0   0   0   0   9   0   0   0   0   0   0   0   0  
27  27  27  27  27  27  27  27  14   2  12   9   6  15  11  30  30  30  30  30  30  30   0   0   0   0   0   0   0   0   0   0   0   0   0   0   0   0   0   0   0   0   0   0   0  
 8  27  27  27  27  27  27  27  12  13  18   7   8   6  15  30  30  30  30  30  30  30   0   0   0   0   0   0   0   0   0   0   0   0   0   0   0   0   0   0   0   0   0   0   0  
27  27  27  27  27  27   7  27  14  18  17  10  15  17   4  30  30  30  30  30  30  30   0   0   0   0   0   0   0   0   0   0   0   0   0   0   0   0   0   0   0   0   0   0   0  
27  27  27  27  27  27  27  27  12  11   5  19   2  20  20  30  30  30  30  30  30  30   0   0   0   0   0   0   0   0   0   0   9   0   0   0   0   0   0   0   0   0   0   0   0  
27  27  27  27  27  27  27  27  20   6  18  12  17  11  19  30  30  30  30  30  30  30   0   0   0   0   0   0   0   0   0   0   0   0   0   0   0   0   0   0   0   0   0   0   0  
 8  14   5  18  20   5   9  18  31  31  31  31  31  31  31  31  31  31  31  31  31  31   0   0   0   0   0   0   0   0   0   0   0   0   0   0   0   0   0   0   0   0   0   0   0  
20   1   1  15   1  12  11   2  31  31  31  31  31  31  31   3  31  31  31  31  31  31   0   0   0   0   0   0   0   0   0   0   0   0   0   0   0   0   0   0   0   0   0   0   0  
15  12   5  16  12   4   3  12  31  31  31  31  31  31  31  31  31  31  31  31  31  31   0   0   0   0   0   0   0   0   0   0   0   0   0   0   0   0   0   0   0   0   0   0   7  
15  12  20   7   3   2  14  18  31  31  31  31  31  31  31  31  31  31  31  31  31  31   0   0   0   0   0   0   0   0   0   0   0   0   0   0   0   0   0   0   0   0   0   0   0  
18  15  13   6  17  11   8   3  31  31  31  31  31  31  31  31  31  31  31  31  31  31   0   0   0   0   0   0   0   0   0   0   0   0   0   0   0   0   0   0   0   0   0   0   0  
13  10   8   1   7   8   6  12  31  31  31  31  31  31  31  31  31  31  31  31  31  31   0   0   0   0   0   0   0   0   0   0   0   0   0   0   0   0   0   0   0   0   0   0   0  
16   7  19  11   9   3   5  15  31  31  31  31  31   9  31  31  31  31  31  31  31  31   0   0   0   0   0   0   0   0   0   0   0   0   0   0   0   0   0   0   7   0   0   0   0  

 0  13   2   4  18   7   3  10  28  28   7  28  28  28  28  27  27  27  27  27  27  27   0   0   0   0   0   9   0   0   0   0   5   0   0   7   0   0   0   0   0   0   0   0   0  
17   0   1   2  20  17  12  15  28  28  28  28  28  28  28   7  27  27  27  27  27  27   0   0   0   0   0   0   0   0   0   0   0   0   2   0   0   0   0   0   0   0   0   8   0  
13  20   0   1  19  19   9  20  28  28  28  28  28  28  28  27  27  27  27  27  27  27   0   0   0   0   0   0   0   0   0   0   0   0   0   0   0   0   0   0   0   0   0   0   0  
 1   8   5   0  18   1  15   5  28  28  28  28  28  28  28  27  27  27  27  27  27  27   0   0   0   0   0   0   9   0   0   0   0   0   0   0   0   0   0   0   0   0   0   0   0  
 1  20   9   3   0  18  13   6   6  28  28  28  28  28   4  27  27  27  27   2  27  27   0   0   0   0   0   0   0   0   0   0   0   0   0   0   2   0   0   0   0   0   0   0   0  
 8  10   1   8   4   0  15  16  28  28  28  28  28  28  28  27  27   3  27  27  27  27   0   0   0   0   0   0   0   0   4   0   0   0   0   0   0   0   0   0   0   0   0   0   0  
 7   4  17   4   7  14   0   6  28  28  28  28  28  28  28  27  27  27  27   3  27  27   0   0   0   0   0   0   0   0   0   0   0   0   0   0   0   0   0   0   0   0   0   0   0  
 9   8   2  11   9   1   6   0  28  28  28  28  28  28  28  27  27  27  27  27  27  27   0   0   0   0   0   0   0   0   0   0   0   0   0   0   0   0   0   0   0   0   0   0   0  
28  28  28  28   6  28  28  28   0  13  10  16  15   6   3  29  29  29  29  29   7  29   0   0   0   0   0   0   0   0   0   0   0   0   0   0   0   0   0   0   0   0   0   0   0  
28  28  28  28  28  28  28  28  20   0   7  12  17   4   6  29  29  29  29  29  29  29   0   0   0   0   0   0   0   0   0   0   9   0   0   0   0   0   0   0   0   0   0   0   0  
 7  28  28  28  28  28  28  28  10   7   0  12  13  16   6  29   6  29  29  29  29  29   0   0   0   0   0   0   0   0   0   0   0   0   0   0   0   0   0   6   0   0   0   0   0  
28  28  28  28  28  28  28  28   3  11  13   0   5   1   9  29  29  29  29  29  29  29   0   0   0   0   0   0   0   0   0   0   0   0   0   0   0   0   0   0   0   0   0   0   0  
28  28  28  28  28  28  28  28   3  13   8  10   0  11   8  29  29  29  29  29  29  29   0   0   0   0   0   0   0   4   0   0   0   0   0   0   0   0   0   0   0   0   0   0   0  
28  28  28  28  28  28  28  28  10   1   5  10   2   0  17  29  29  29  29  29  29  29   0   0   0   0   0   0   0   0   0   0   0   0   0   0   0   0   0   0   5   5   0   0   0  
28  28  28  28   4  28  28  28  18  13  15  20   3  16   0  29  29  29  29  29  29  29   0   0   5   0   0   0   0   0   0   0   0   0   0   0   0   0   0   0   0   0   0   0   0  
27   7  27  27  27  27  27  27  29  29  29  29  29  29  29   0  13  19   7   3  16  19   0   0   0   0   0   0   0   0   0   0   0   3   0   0   0   0   5   0   0   0   0   0   0  
27  27  27  27  27  27  27  27  29  29   6  29  29  29  29   2   0  14   8   7   9   8   0   0   0   0   0   0   0   0   0   0   0   0   0   0   0   0   0   0   0   0   0   0   0  
27  27  27  27  27   3  27  27  29  29  29  29  29  29  29  10  10   0  18   1  13  19   0   0   0   6   0   0   0   0   0   0   0   0   0   0   0   0   0   0   0   0   0   0   0  
27  27  27  27  27  27  27  27  29  29  29  29  29  29  29  17   2  15   0   4  17   8   4   0   0   3   0   0   0   8   0   0   0   0   0   0   0   0   0   0   6   0   0   0   0  
27  27  27  27   2  27   3  27  29  29  29  29  29  29  29   4   9  20  10   0   8   8   0   0   2   0   0   0   0   0   0   0   0   0   0   0   0   0   0   0   0   0   0   0   0  
27  27  27  27  27  27  27  27   7  29  29  29  29  29  29   6  18   5  11  19   0  13   0   0   0   0   0   0   0   5   0   0   0   0   0   0   0   0   0   0   5   0   0   0   0  
27  27  27  27  27  27  27  27  29  29  29  29  29  29  29   2   5   5  15   9  17   0   0   0   0   0   0   0   7   0   0   0   0   0   0   0   0   0   0   0   0   5   0   0   0  
 0   0   0   0   0   0   0   0   0   0   0   0   0   0   0   0   0   0   4   0   0   0  18  15  13   7  15  13   5  14  27  27  27  27  27  27  27  27  28   3  28  28  28  28  28  
 0   0   0   0   0   0   0   0   0   0   0   0   0   0   0   0   0   0   0   0   0   0  17  10   1   8   7   9  11  10  27  27  27  27  27  27  27  27  28  28  28  28  28   4  28  
 0   0   0   0   0   0   0   0   0   0   0   0   0   0   5   0   0   0   0   2   0   0   5   8   1   4  12   5   4  20  27  27  27  27  27  27  27  27  28  28  28  28  28  28  28  
 0   0   0   0   0   0   0   0   0   0   0   0   0   0   0   0   0   6   3   0   0   0   3  15   4   3   5  13   1  14  27  27  27  27  27  27  27  27  28  28   9  28  28  28  28  
 0   0   0   0   0   0   0   0   0   0   0   0   0   0   0   0   0   0   0   0   0   0   9   5   4  14  18  13   2  14  27  27  27  27  27  27  27  27  28  28  28  28  28  28  28  
 9   0   0   0   0   0   0   0   0   0   0   0   0   0   0   0   0   0   0   0   0   0  12  20   7  14   6  14  17   2  27  27  27  27  27  27  27  27  28  28  28  28  28  28  28  
 0   0   0   9   0   0   0   0   0   0   0   0   0   0   0   0   0   0   0   0   0   7   5  15  19   4   3   6  16  17  27  27  27  27  27  27  27  27  28  28  28  28  28  28  28  
 0   0   0   0   0   0   0   0   0   0   0   0   4   0   0   0   0   0   8   0   5   0  12   3  11  17  20   7  19   2  27  27  27   3  27  27  27  27  28  28  28  28  28  28  28  
 0   0   0   0   0   4   0   0   0   0   0   0   0   0   0   0   0   0   0   0   0   0  27  27  27  27  27  27  27  27  20   9  11  20   6  12   8  17  31  31  31  31   9  31  31  
 0   0   0   0   0   0   0   0   0   0   0   0   0   0   0   0   0   0   0   0   0   0  27  27  27  27  27  27  27  27  20   6  18   5  12   8  19   7  31  31  31  31  31  31  31  
 5   0   0   0   0   0   0   0   0   9   0   0   0   0   0   0   0   0   0   0   0   0  27  27  27  27  27  27  27  27   4  13  16   5   4   8   5  18  31  31  31  31  31  31  31  
 0   0   0   0   0   0   0   0   0   0   0   0   0   0   0   3   0   0   0   0   0   0  27  27  27  27  27  27  27   3   7  11   5   7  10  11  15  10  31  31  31  31  31  31  31  
 0   2   0   0   0   0   0   0   0   0   0   0   0   0   0   0   0   0   0   0   0   0  27  27  27  27  27  27  27  27  17   6   5  20  12  15  18   1  31  31  31  31  31  31  31  
 7   0   0   0   0   0   0   0   0   0   0   0   0   0   0   0   0   0   0   0   0   0  27  27  27  27  27  27  27  27  17  18  17   1  15   4  11   5  31  31  31  31   7  31  31  
 0   0   0   0   2   0   0   0   0   0   0   0   0   0   0   0   0   0   0   0   0   0  27  27  27  27  27  27  27  27  16  19   1  10  20   9  17   5  31  31  31  31  31  31  31  
 0   0   0   0   0   0   0   0   0   0   0   0   0   0   0   0   0   0   0   0   0   0  27  27  27  27  27  27  27  27  20   9   8  14   3  14   8  15  31  31   7  31  31  31  31  
 0   0   0   0   0   0   0   0   0   0   0   0   0   0   0   5   0   0   0   0   0   0  28  28  28  28  28  28  28  28  31  31  31  31  31  31  31  31   2   5  17  18   1  14   8  
 0   0   0   0   0   0   0   0   0   0   6   0   0   0   0   0   0   0   0   0   0   0   3  28  28  28  28  28  28  28  31  31  31  31  31  31  31  31  11  14  13   1  15  11  16  
 0   0   0   0   0   0   0   0   0   0   0   0   0   5   0   0   0   0   6   0   5   0  28  28  28   9  28  28  28  28  31  31  31  31  31  31  31   7  13   7   8   8  17   3   2  
 0   0   0   0   0   0   0   0   0   0   0   0   0   5   0   0   0   0   0   0   0   5  28  28  28  28  28  28  28  28  31  31  31  31  31  31  31  31  16   1  15  14  12   7  11  
 0   0   0   0   0   0   0   0   0   0   0   0   0   0   0   0   0   0   0   0   0   0  28  28  28  28  28  28  28  28   9  31  31  31  31   7  31  31  19   4   5  20  11   9   7  
 0   8   0   0   0   0   0   0   0   0   0   0   0   0   0   0   0   0   0   0   0   0  28   4  28  28  28  28  28  28  31  31  31  31  31  31  31  31   5   4   9   1   8  10  18  
 0   0   0   0   0   0   0   0   0   0   0   0   0   0   0   0   0   0   0   0   0   0  28  28  28  28  28  28  28  28  31  31  31  31  31  31  31  31  14  16   7  19  11   6  20  
